sing20150524.00
TTAA  74001 48698
99008 27430 03001 00088 27027 34002 92775 22823 16515
85511 19850 19010 70165 12660 30509 50589 06309 13507
40761 15739 10007 30971 30142 08518 25098 40558 08523
20246 53548 08031 15424 68344 08555 10661 80319 12527
88999
77139 07569 42236=
TTCC  74007 48698
70863 70957 11030
88999
77999=
TTDD  7400/ 48698
11942 82960 22892 85171 33859 85957 44827 84923 55785
78366 66763 74560 77759 74558 88734 73357 99716 70757
11676 70958 22665 70959 33653 69959
21212 11967 11526 22945 11528 33925 10526 44880 11025
55842 08031 66801 09050 77785 09538 88769 09537 99752
09038 11721 11531 22708 11531 33690 11027 44663 08535
55653 08536=
